1409
1   1   147  53   0 8 16 24 32 39 31 23 15 7 0
1   2   128  51   0 6 14 22 36 28 20 12 4 0
1   3   170  54   0 1 9 17 25 33 34 26 18 10 2 0
1   4   170  54   0 5 13 21 29 37 35 27 19 11 3 0
1   5   0    0    0 0
2   1   170  54   0 47 55 63 71 79 80 72 64 56 48 0
2   2   170  54   0 46 54 62 70 78 76 68 60 52 44 0
2   3   100  27   0 53 77 69 61 45 0
2   4   174  30   0 30 38 73 65 57 49 41 0
2   5   180  55   0 43 51 59 67 75 40 74 66 58 50 42 0